Maximize
  25 x_demonstration_1 + 18 x_demonstration_2
Subject To
  c1: 10 x_demonstration_1 + 12 x_demonstration_2 <= 120
  c2: 20 x_demonstration_1 + 15 x_demonstration_2 <= 100
  c3: 5 x_demonstration_1 + 3 x_demonstration_2 <= 50
Integer
  x_demonstration_1 x_demonstration_2
End